21852.90 0
38 70 79 26 29 51 84 17 72 19 25 40 43 44 99 11 32 21 35 54 92 5 20 87 88 77 37 47 7 83 39 74 66 57 71 24 3 55 14 62 16 80 96 4 91 69 13 28 64 76 34 50 2 89 61 95 73 81 10 75 56 31 27 58 86 65 0 12 93 15 97 33 60 1 36 45 46 30 94 82 49 23 6 85 59 41 48 68 67 78 98 42 53 9 63 18 52 22 8 90